This is Ipopt version 3.10.1, running with linear solver mumps.

Number of nonzeros in equality constraint Jacobian...:      236
Number of nonzeros in inequality constraint Jacobian.:        0
Number of nonzeros in Lagrangian Hessian.............:     5892

Total number of variables............................:      120
                     variables with only lower bounds:        0
                variables with lower and upper bounds:      120
                     variables with only upper bounds:        0
Total number of equality constraints.................:       59
Total number of inequality constraints...............:        0
        inequality constraints with only lower bounds:        0
   inequality constraints with lower and upper bounds:        0
        inequality constraints with only upper bounds:        0

iter    objective    inf_pr   inf_du lg(mu)  ||d||  lg(rg) alpha_du alpha_pr  ls
   0 -2.1422860e-03 1.00e-02 1.34e-03  -1.0 0.00e+00    -  0.00e+00 0.00e+00   0
   1 -2.5478299e-03 3.10e-10 5.41e-03  -1.7 3.31e-02    -  9.54e-01 1.00e+00f  1
   2 -2.6522877e-03 4.44e-16 1.91e-05  -2.5 3.22e-02    -  1.00e+00 1.00e+00f  1
   3 -3.5058866e-03 9.44e-12 9.54e-04  -3.8 3.62e-02    -  8.81e-01 1.00e+00f  1
   4 -1.3848045e-02 4.07e-12 1.06e-02  -5.7 2.74e-01  -2.0 4.04e-01 5.69e-01f  1
   5 -1.7291477e-02 3.02e-12 9.81e-03  -5.7 3.64e-02  -0.7 9.49e-01 6.62e-01f  1
   6 -2.4895001e-02 2.88e-12 4.98e-02  -5.7 8.35e-01  -1.1 4.77e-01 4.62e-02f  1
   7 -3.3501509e-02 4.55e-12 1.51e-02  -5.7 6.93e-02  -0.7 1.00e+00 5.88e-01f  1
   8 -3.7473080e-02 1.91e-12 1.55e-02  -5.7 2.91e-02  -0.3 1.00e+00 5.81e-01f  1
   9 -4.5467487e-02 4.49e-12 3.17e-02  -5.7 1.95e-01  -0.8 1.00e+00 1.74e-01f  1
iter    objective    inf_pr   inf_du lg(mu)  ||d||  lg(rg) alpha_du alpha_pr  ls
  10 -5.0887262e-02 2.82e-12 1.93e-02  -5.7 4.98e-02  -0.3 1.00e+00 3.72e-01f  1
  11 -5.4599704e-02 2.75e-12 1.35e-01  -5.7 4.94e-01  -0.8 1.00e+00 2.67e-02f  1
  12 -6.5312087e-02 1.24e-12 2.43e-02  -5.7 6.60e-02  -0.4 1.00e+00 5.48e-01f  1
  13 -7.3189223e-02 3.99e-12 1.37e-01  -5.7 3.27e+00  -0.9 1.10e-01 7.49e-03f  1
  14 -7.9479863e-02 5.75e-12 3.69e-02  -5.7 8.33e-02  -0.4 1.00e+00 2.13e-01f  1
  15 -8.8219793e-02 8.74e-12 6.27e-02  -5.7 3.07e+00  -0.9 2.82e-02 7.73e-03f  1
  16 -9.2322402e-02 9.58e-12 5.27e-02  -5.7 1.11e-01  -0.5 1.00e+00 1.02e-01f  1
  17 -9.6528007e-02 6.23e-12 2.61e-02  -5.7 3.41e-02  -0.1 1.00e+00 3.49e-01f  1
  18 -1.0478469e-01 8.41e-12 5.60e-02  -5.7 1.40e-01  -0.6 1.00e+00 1.80e-01f  1
  19 -1.0571700e-01 7.69e-12 4.35e-02  -5.7 4.10e-02  -0.1 1.00e+00 8.60e-02f  1
iter    objective    inf_pr   inf_du lg(mu)  ||d||  lg(rg) alpha_du alpha_pr  ls
  20 -1.0967515e-01 6.72e-12 5.72e-02  -5.7 1.11e-01  -0.6 1.00e+00 1.26e-01f  1
  21 -1.1250133e-01 8.82e-12 2.88e-02  -5.7 2.89e-02  -0.2 1.00e+00 3.21e-01f  1
  22 -1.2034024e-01 1.16e-11 4.03e-02  -5.7 1.45e-01  -0.7 1.00e+00 2.23e-01f  1
  23 -1.2312952e-01 1.05e-11 2.64e-02  -5.7 3.49e-02  -0.2 1.00e+00 3.10e-01f  1
  24 -1.2599940e-01 9.33e-12 3.66e-02  -5.7 1.09e-01  -0.7 1.00e+00 1.14e-01f  1
  25 -1.2862014e-01 6.34e-12 1.70e-02  -5.7 3.75e-02  -0.3 1.00e+00 3.20e-01f  1
  26 -1.3955795e-01 1.07e-11 3.46e-02  -5.7 1.57e-01  -0.8 1.00e+00 3.05e-01f  1
  27 -1.4394882e-01 9.60e-12 2.30e-02  -5.7 4.79e-02  -0.3 1.00e+00 3.59e-01f  1
  28 -1.6779168e-01 1.91e-11 9.05e-02  -5.7 3.56e-01  -0.8 1.00e+00 2.29e-01f  1
  29 -1.7515303e-01 1.91e-11 7.01e-02  -5.7 9.15e-02  -0.4 1.00e+00 2.52e-01f  1
iter    objective    inf_pr   inf_du lg(mu)  ||d||  lg(rg) alpha_du alpha_pr  ls
  30 -1.8344088e-01 1.49e-11 3.20e-02  -5.7 2.84e-02   0.0 1.00e+00 1.00e+00f  1
  31 -1.8625519e-01 1.44e-11 4.99e-02  -5.7 1.39e-01  -0.4 9.45e-01 6.83e-02f  1
  32 -1.8625478e-01 1.44e-11 5.04e-02  -5.7 1.15e+00  -0.9 1.51e-02 3.23e-05f  2
  33 -1.9305159e-01 1.35e-11 4.25e-02  -5.7 1.47e-01  -0.5 6.69e-01 1.71e-01f  1
  34 -1.9673563e-01 8.09e-12 3.40e-02  -5.7 3.50e-02  -0.1 6.91e-01 3.86e-01f  1
  35 -1.9963201e-01 7.46e-12 3.41e-02  -5.7 1.45e-01  -0.5 2.19e-01 7.84e-02f  1
  36 -2.0031123e-01 6.78e-12 2.76e-02  -5.7 2.67e-02  -0.1 4.39e-01 9.02e-02f  1
  37 -2.0988717e-01 7.70e-12 2.63e-02  -5.7 9.65e-02  -0.6 1.23e-01 3.59e-01f  1
  38 -2.1864063e-01 7.45e-12 2.41e-02  -5.7 3.47e-02  -0.2 1.00e+00 8.33e-01f  1
  39 -2.2067077e-01 7.26e-12 2.46e-02  -5.7 1.61e-01  -0.6 2.27e-01 4.10e-02f  1
iter    objective    inf_pr   inf_du lg(mu)  ||d||  lg(rg) alpha_du alpha_pr  ls
  40 -2.2329555e-01 6.90e-12 3.72e-02  -5.7 3.47e-02  -0.2 1.00e+00 2.03e-01f  1
  41 -2.2814046e-01 8.84e-12 4.19e-02  -5.7 1.98e-01  -0.7 2.57e-01 9.11e-02f  1
  42 -2.3169611e-01 1.19e-11 5.93e-02  -5.7 4.73e-02  -0.3 1.00e+00 3.64e-01f  1
  43 -2.3275046e-01 1.23e-11 9.52e-02  -5.7 1.70e-01  -0.7 1.00e+00 3.16e-02f  1
  44 -2.4327313e-01 1.52e-11 2.67e-02  -5.7 5.49e-02  -0.3 1.00e+00 1.00e+00f  1
  45 -2.5052835e-01 1.26e-11 3.97e-02  -5.7 2.11e-01  -0.8 5.81e-01 1.74e-01f  1
  46 -2.5995858e-01 1.63e-11 2.05e-02  -5.7 4.73e-02  -0.4 1.00e+00 1.00e+00f  1
  47 -3.0556329e-01 2.51e-12 3.44e-02  -5.7 1.87e-01  -0.8 8.68e-01 8.46e-01f  1
  48 -3.1196641e-01 8.58e-12 5.92e-02  -5.7 8.11e-02  -0.4 1.00e+00 2.05e-01f  1
  49 -3.2230845e-01 8.03e-12 5.38e-02  -5.7 6.65e-01  -0.9 6.25e-02 6.31e-02f  1
iter    objective    inf_pr   inf_du lg(mu)  ||d||  lg(rg) alpha_du alpha_pr  ls
  50 -3.2535545e-01 7.18e-12 6.87e-02  -5.7 8.63e-02  -0.5 3.38e-01 1.07e-01f  1
  51 -3.2611477e-01 7.14e-12 1.03e-01  -5.7 9.95e-01  -0.9 7.29e-02 5.09e-03f  1
  52 -3.2686400e-01 7.50e-12 1.03e-01  -5.7 7.82e-02  -0.5 4.25e-01 2.86e-02f  1
  53 -3.3021973e-01 9.67e-12 1.07e-01  -5.7 7.96e-01  -1.0 2.87e-02 1.73e-02f  1
  54 -3.4873904e-01 4.30e-12 4.57e-02  -5.7 9.22e-02  -0.6 5.11e-01 5.55e-01f  1
  55 -3.4726069e-01 4.26e-12 3.90e-02  -5.7 7.93e-01  -1.0 1.04e-01 1.01e-02h  1
  56 -3.4776971e-01 4.21e-12 3.92e-02  -5.7 1.29e-01  -0.6 2.76e-01 1.13e-02f  1
  57 -3.6105783e-01 4.78e-13 2.54e-02  -5.7 3.85e-02  -0.2 3.61e-01 8.86e-01f  1
  58 -3.6346554e-01 4.55e-13 2.88e-02  -5.7 1.80e-01  -0.7 1.51e-01 4.82e-02f  1
  59 -3.6347370e-01 4.41e-13 6.72e-02  -5.7 7.01e-01  -1.1 1.54e-01 3.09e-02f  1
iter    objective    inf_pr   inf_du lg(mu)  ||d||  lg(rg) alpha_du alpha_pr  ls
  60 -3.8629314e-01 3.24e-13 9.25e-02  -5.7 2.34e-01  -0.7 1.93e-04 2.65e-01f  1
  61 -3.8791441e-01 2.63e-11 8.90e-02  -5.7 1.03e-01  -0.3 4.10e-02 4.51e-02f  1
  62 -3.8791411e-01 2.63e-11 1.37e-01  -5.7 1.92e+00  -0.8 4.93e-02 5.77e-07f 14
  63 -3.8835819e-01 2.61e-11 8.02e-02  -5.7 1.25e-01  -0.3 2.64e-01 9.87e-03f  1
  64 -3.8835415e-01 2.61e-11 1.01e-01  -5.7 9.05e-01  -0.8 6.68e-02 1.89e-05f  9
  65 -3.8833441e-01 2.61e-11 1.31e-01  -5.7 3.82e+01  -0.4 3.01e-03 1.19e-05f  7
  66 -3.8698371e-01 2.58e-11 1.61e-01  -5.7 7.11e-01  -0.9 1.28e-01 8.14e-03h  1
  67 -3.9148202e-01 2.46e-11 1.44e-01  -5.7 1.91e-01  -0.5 9.94e-02 6.66e-02f  1
  68 -4.1163090e-01 2.30e-11 5.73e-02  -5.7 5.84e-02  -0.0 6.28e-01 9.57e-01f  1
  69 -4.2401151e-01 2.20e-11 6.46e-02  -5.7 6.10e-01  -0.5 1.56e-01 4.72e-02f  1
iter    objective    inf_pr   inf_du lg(mu)  ||d||  lg(rg) alpha_du alpha_pr  ls
  70 -4.2735868e-01 1.98e-11 6.52e-02  -5.7 8.35e-02  -0.1 1.19e-01 9.95e-02f  1
  71 -4.2953340e-01 1.94e-11 6.65e-02  -5.7 1.44e+00  -0.6 1.88e-02 3.84e-03f  1
  72 -4.3378574e-01 1.75e-11 1.62e-01  -5.7 1.06e-01  -0.1 7.18e-03 9.53e-02f  1
  73 -4.3454921e-01 1.75e-11 2.28e-01  -5.7 5.69e-01  -0.6 2.38e-01 4.92e-03f  1
  74 -4.3513314e-01 1.73e-11 2.11e-01  -5.7 7.59e-01  -1.1 1.00e-01 9.81e-03f  1
  75 -4.3590925e-01 1.52e-11 1.19e-01  -5.7 5.40e-02  -0.7 6.01e-01 1.20e-01f  1
  76 -4.3680764e-01 9.12e-12 7.27e-02  -5.7 2.08e-02  -0.2 4.46e-01 4.01e-01f  1
  77 -4.3959490e-01 1.90e-11 5.55e-02  -5.7 6.26e-02  -0.7 1.00e+00 4.48e-01f  1
  78 -4.4689123e-01 1.58e-11 4.66e-02  -5.7 5.09e-01  -1.2 1.79e-01 1.70e-01f  1
  79 -4.4886548e-01 1.49e-11 1.18e-01  -5.7 4.84e-01  -1.7 3.01e-01 5.73e-02f  1
iter    objective    inf_pr   inf_du lg(mu)  ||d||  lg(rg) alpha_du alpha_pr  ls
  80 -4.4886611e-01 1.49e-11 1.18e-01  -5.7 2.84e-01    -  4.19e-02 8.41e-05f  2
  81 -4.4993326e-01 8.28e-12 4.98e-02  -5.7 6.12e-02  -1.2 1.00e+00 4.44e-01f  1
  82 -4.5150147e-01 2.10e-12 1.83e-02  -5.7 1.95e-01    -  5.93e-01 7.46e-01f  1
  83 -4.5156392e-01 2.22e-16 7.69e-02  -5.7 3.86e-02  -1.7 5.52e-01 1.00e+00f  1
  84 -4.5151482e-01 4.44e-16 2.65e-02  -5.7 3.56e-02    -  1.00e+00 8.45e-01h  1
  85 -4.5151484e-01 3.33e-16 1.91e-03  -5.7 1.90e-03    -  1.00e+00 1.25e-01f  4
  86 -4.5151484e-01 4.44e-16 6.77e-03  -5.7 2.13e-03  -2.2 1.00e+00 3.91e-03f  9
  87 -4.5151485e-01 4.44e-16 7.13e-03  -5.7 1.67e-03    -  1.00e+00 1.25e-01f  4
  88 -4.5151486e-01 4.44e-16 7.38e-03  -5.7 2.94e-04  -0.9 1.00e+00 9.77e-04f 11
  89 -4.5151517e-01 2.22e-16 3.75e-03  -5.7 1.51e-03  -1.3 1.00e+00 5.00e-01f  2
iter    objective    inf_pr   inf_du lg(mu)  ||d||  lg(rg) alpha_du alpha_pr  ls
  90 -4.5151543e-01 1.24e-12 6.41e-05  -5.7 5.22e-04  -0.9 1.00e+00 1.00e+00f  1
  91 -4.5151497e-01 5.33e-15 4.87e-06  -5.7 2.58e-03    -  1.00e+00 1.00e+00h  1
  92 -4.5169566e-01 1.41e-14 6.34e-06  -8.6 1.55e-04  -1.4 1.00e+00 1.00e+00f  1
  93 -4.5169557e-01 4.44e-16 1.26e-08  -8.6 2.07e-04    -  1.00e+00 1.00e+00h  1
  94 -4.5169573e-01 1.11e-15 1.36e-13  -9.0 2.33e-07    -  1.00e+00 1.00e+00h  1

Number of Iterations....: 94

                                   (scaled)                 (unscaled)
Objective...............:  -4.5169572661835117e-01   -4.5169572661835117e-01
Dual infeasibility......:   1.3603688302618489e-13    1.3603688302618489e-13
Constraint violation....:   1.1102230246251565e-15    1.1102230246251565e-15
Complementarity.........:   9.9467955554233446e-10    9.9467955554233446e-10
Overall NLP error.......:   9.9467955554233446e-10    9.9467955554233446e-10


Number of objective function evaluations             = 155
Number of objective gradient evaluations             = 95
Number of equality constraint evaluations            = 155
Number of inequality constraint evaluations          = 0
Number of equality constraint Jacobian evaluations   = 1
Number of inequality constraint Jacobian evaluations = 0
Number of Lagrangian Hessian evaluations             = 94
Total CPU secs in IPOPT (w/o function evaluations)   =      0.420
Total CPU secs in NLP function evaluations           =      6.890

EXIT: Optimal Solution Found.
